tsp_instances/TSP20/instance124.tsp
NODE_COORD_SECTION
0 126 192
1 170 34
2 125 7
3 133 56
4 99 121
5 38 182
6 127 165
7 94 106
8 142 114
9 76 176
10 150 108
11 193 144
12 165 12
13 66 141
14 80 179
15 83 77
16 51 199
17 31 157
18 37 154
19 46 21
