tsp_instances/TSP20/instance124.opt.tour
TOUR_SECTION
1
7
12
9
11
4
2
13
3
20
16
8
5
14
19
18
6
17
10
15
-1